Route #1: 1 15 18 25 3 11 37 12 21 8 34 45 1
Route #2: 1 2 31 17 14 30 5 1
Route #3: 1 44 26 27 43 6 1
Route #4: 1 7 35 19 16 4 10 36 1
Route #5: 1 13 33 9 23 28 40 29 20 38 24 1
Route #6: 1 41 39 42 32 22 1
cost 724.377398811666